p cnf 12 48 
c Factors encoded in variables 1-6 and 7-12
c Target number: 2491
c Factors: 53 x 47
5 -4 -8 0
4 -2 10 -8 0
-5 2 11 10 0
2 8 0
4 -2 10 0
9 0
-4 2 0
5 -4 11 8 0
2 -11 -10 0
5 -4 11 -10 8 0
-5 -2 -11 10 0
-5 -4 2 0
-5 -11 -10 0
-5 2 10 0
1 0
-5 -4 10 -8 0
-5 -4 -11 0
5 -2 11 10 0
3 0
5 -4 2 11 -10 0
-4 -2 -10 0
-5 -4 -11 -10 0
4 2 -11 10 0
7 0
5 2 -11 10 0
5 4 11 10 0
-5 4 2 -11 0
-5 -4 8 0
-4 -10 -8 0
-4 -10 0
12 0
5 -10 0
5 11 10 0
5 11 -10 -8 0
-11 -10 0
5 4 10 0
-5 2 -11 -10 0
-2 -8 0
-5 11 -10 8 0
5 4 11 0
4 2 -10 8 0
5 -2 10 -8 0
6 0
-5 -2 -11 0
-5 4 -11 10 0
5 4 -2 -11 -10 0
5 4 11 -10 0
5 4 2 -11 10 0
